c NeuroCodeBench 2.0 CNF formula with verdict Unsat
p cnf 50 79
-1 -26 35 34 7 16 32 5 41 0
-1 -26 -35 -27 -48 0
1 35 -25 -40 28 0
1 35 25 4 -21 38 41 3 -46 0
-1 -26 35 34 -7 13 -49 -42 0
-1 -26 -35 27 -20 0
-1 -26 35 -34 -39 -2 16 7 9 -22 -32 0
-1 26 18 50 -44 4 -17 0
-1 -26 35 -34 -39 -2 16 7 9 -22 32 0
-1 -26 35 -34 -39 2 -31 9 0
-1 -26 35 34 7 16 -32 -25 0
-1 -26 35 -34 -39 -2 16 7 9 22 0
1 35 25 4 -21 38 -41 48 -16 -5 0
-1 26 18 50 44 -6 0
-1 26 -18 38 3 37 33 -15 36 0
-1 -26 35 34 -7 13 -49 42 0
-1 26 -18 -38 -21 6 0
-1 -26 35 34 7 -16 41 33 43 0
-1 26 -18 38 -3 47 0
-1 26 -18 38 3 37 33 15 9 0
1 35 -25 40 -3 0
-1 -26 35 34 -7 13 49 -12 0
1 -35 -8 6 0
-1 26 -18 38 3 -37 -48 0
-1 26 -18 -38 -21 -6 14 -10 0
-1 -26 35 34 7 -16 -41 0
-1 -26 35 34 7 16 -32 25 0
-1 -26 35 -34 -39 -2 16 7 -9 0
-1 26 18 50 -44 4 17 0
-1 26 18 50 44 6 -45 0
-1 26 18 50 -44 -4 -24 0
1 35 -25 -40 -28 0
1 35 25 -4 -2 0
1 35 25 4 -21 38 41 -3 -32 0
1 35 25 4 -21 38 41 -3 32 0
-1 26 -18 38 3 -37 48 0
-1 26 -18 38 -3 -47 0
-1 26 18 50 -44 -4 24 0
1 35 25 4 -21 38 -41 -48 0
1 -35 8 45 0
-1 -26 35 34 -7 -13 0
1 -35 -8 -6 0
-1 26 -18 -38 -21 -6 -14 0
-1 -26 35 34 -7 13 49 12 0
1 -35 8 -45 -48 0
1 35 25 -4 2 0
-1 -26 35 34 7 16 32 -5 -28 0
-1 -26 -35 27 20 0
-1 26 -18 -38 21 0
-1 26 -18 38 3 37 33 -15 -36 0
-1 -26 35 -34 -39 -2 -16 0
-1 26 -18 -38 -21 -6 14 10 0
-1 -26 35 -34 -39 -2 16 -7 -33 0
1 35 25 4 21 -24 -50 0
1 -35 8 -45 48 0
-1 26 -18 38 3 37 -33 0
1 35 25 4 -21 -38 19 48 7 0
1 35 25 4 -21 38 -41 48 16 0
1 35 -25 40 3 0
-1 -26 35 -34 -39 -2 16 -7 33 0
-1 -26 35 34 7 -16 41 33 -43 0
1 35 25 4 -21 38 41 3 46 0
1 35 25 4 21 24 0
-1 -26 35 -34 -39 2 31 0
1 35 25 4 -21 38 -41 48 -16 5 0
-1 -26 35 -34 -39 2 -31 -9 0
-1 26 18 -50 0
1 35 25 4 -21 -38 19 -48 7 0
1 35 25 4 -21 -38 19 48 -7 0
1 35 25 4 -21 -38 -19 0
-1 -26 35 -34 39 0
-1 -26 -35 -27 48 0
-1 26 -18 38 3 37 33 15 -9 0
-1 -26 35 34 7 16 32 -5 28 0
1 35 25 4 21 -24 50 0
-1 26 18 50 44 6 45 0
-1 -26 35 34 7 -16 41 -33 0
-1 -26 35 34 7 16 32 5 -41 0
1 35 25 4 -21 -38 19 -48 -7 0
